Translating instance to solver...

GLPSOL: GLPK LP/MIP Solver, v4.65
Parameter(s) specified in the command line:
 --tmlim 28800 --mipgap 0.001 --write C:\Users\LUCASP~1\AppData\Local\Temp\tmpvesof4of.glpk.raw
 --wglp C:\Users\LUCASP~1\AppData\Local\Temp\tmpmhoy49b5.glpk.glp --cpxlp
 C:\Users\LUCASP~1\AppData\Local\Temp\tmpybl5tsl3.pyomo.lp
Reading problem data from 'C:\Users\LUCASP~1\AppData\Local\Temp\tmpybl5tsl3.pyomo.lp'...
C:\Users\LUCASP~1\AppData\Local\Temp\tmpybl5tsl3.pyomo.lp:149019: warning: lower bound of variable 'x1' redefined
C:\Users\LUCASP~1\AppData\Local\Temp\tmpybl5tsl3.pyomo.lp:149019: warning: upper bound of variable 'x1' redefined
24927 rows, 13763 columns, 60384 non-zeros
13762 integer variables, 13740 of which are binary
162759 lines were read
Writing problem data to 'C:\Users\LUCASP~1\AppData\Local\Temp\tmpmhoy49b5.glpk.glp'...
115234 lines were written
GLPK Integer Optimizer, v4.65
24927 rows, 13763 columns, 60384 non-zeros
13762 integer variables, 13740 of which are binary
Preprocessing...
160 hidden packing inequaliti(es) were detected
3640 hidden covering inequaliti(es) were detected
100 constraint coefficient(s) were reduced
14816 rows, 6585 columns, 38573 non-zeros
6585 integer variables, 6564 of which are binary
Scaling...
 A: min|aij| =  1.000e+00  max|aij| =  3.400e+01  ratio =  3.400e+01
GM: min|aij| =  4.268e-01  max|aij| =  2.343e+00  ratio =  5.490e+00
EQ: min|aij| =  2.203e-01  max|aij| =  1.000e+00  ratio =  4.539e+00
2N: min|aij| =  1.250e-01  max|aij| =  1.438e+00  ratio =  1.150e+01
Constructing initial basis...
Size of triangular part is 14816
Solving LP relaxation...
GLPK Simplex Optimizer, v4.65
14816 rows, 6585 columns, 38573 non-zeros
      0: obj =   0.000000000e+00 inf =   6.513e+01 (105)
Perturbing LP to avoid stalling [343]...
    860: obj =   3.338372005e+00 inf =   1.388e-16 (0) 3
Removing LP perturbation [1627]...
*  1627: obj =   8.194743077e-01 inf =   4.784e-13 (0) 3
OPTIMAL LP SOLUTION FOUND
Integer optimization begins...
Long-step dual simplex will be used
+  1627: mip =     not found yet >=              -inf        (1; 0)
+  2390: mip =     not found yet >=   8.194743077e-01        (21; 1)
+  3116: mip =     not found yet >=   8.222846154e-01        (38; 1)
+  3407: mip =     not found yet >=   8.222846154e-01        (46; 1)
+  3760: mip =     not found yet >=   8.249398947e-01        (55; 2)
+  4571: mip =     not found yet >=   1.041327455e+00        (71; 3)
+  5593: >>>>>   1.061782000e+00 >=   1.061782000e+00 < 0.1% (84; 12)
+  5593: mip =   1.061782000e+00 >=     tree is empty   0.0% (0; 191)
INTEGER OPTIMAL SOLUTION FOUND
Time used:   32.5 secs
Memory used: 26.3 Mb (27532175 bytes)
Writing MIP solution to 'C:\Users\LUCASP~1\AppData\Local\Temp\tmpvesof4of.glpk.raw'...
38699 lines were written

Results:

E = 1.061782 mA
C = 42.0 points
C ~= 16.8 km^2

Minimum Epsilon for this instance = 9
Maximum Epsilon for this instance = 98
Current Epsilon = 36

Instance Maximum Epsilon Preprocessing Time: 0.011992692947387695 s

Time in solver (for this epsilon): 33.13027310371399 s
Elapsed time (for this epsilon): 38.313536405563354 s


Total elapsed time since execution of first epsilon: 2478.7051389217377 s


Updated solution vectors:
sol_E = [0.611782,1.061782,1.061782,1.061782]
sol_C = [12.0,30.0,28.0,42.0]
sol_eps = [9,18,27,36]
